Traveling Salesman Problem/TSP_generados/Aleatorio1621103282_8.tsp
NAME: Aleatorio1621103282_8.tsp
COMMENT: Randomly generated scenario
TYPE: TSP
DIMENSION: 8
EDGE_WEIGHT_TYPE: ATT
NODE_COORD_SECTION
1 28.03 29.52
2 23.84 11.05
3 33.49 32.64
4 22.07 24.11
5 13.09 19.15
6 17.4 48.61
7 14.87 27.38
8 9.09 44.77
