Traveling Salesman Problem/TSP_generados/Aleatorio1621103282_8.opt.tour
NAME: Aleatorio1621103282_8.opt.tour
COMMENT: Optimal solution for Aleatorio1621103282_8 (99.54722208727998)
TYPE: TOUR
DIMENSION: 8
TOUR_SECTION
1 3 6 8 7 5 2 4
-1
EOF
